qbf_easy_train/easy_4046_SAT.qdimacs
p cnf 19 41
a 3 14 7 0
e 1 2 4 5 6 8 9 10 11 12 13 15 16 17 18 19 0
-3 -1 0
-3 2 0
1 -2 3 0
-3 -4 -5 0
3 4 -5 0
-3 4 5 0
3 -4 5 0
-8 6 0
-8 7 0
-6 -7 8 0
10 6 0
10 9 0
-6 -9 -10 0
12 -3 0
12 2 0
3 -2 -12 0
-13 -11 0
-13 12 0
11 -12 13 0
-10 -13 -14 0
10 13 -14 0
-10 13 14 0
10 -13 14 0
15 8 0
15 -14 0
-8 14 -15 0
17 -16 0
17 -16 0
16 -17 0
15 17 -18 0
-15 -17 -18 0
15 -17 18 0
-15 17 18 0
19 5 0
19 18 0
-5 -18 -19 0
16 -19 14 0
14 11 -19 0
3 6 -13 11 -8 -10 0
3 19 -18 0
19 0
