sat_easy_train/easy_4046_SAT.dimacs
p cnf 149 506
3 1 0
3 2 0
-1 -2 -3 0
4 -3 0
4 -2 0
3 2 -4 0
7 -5 0
7 -6 0
5 6 -7 0
8 7 0
8 3 0
-7 -3 -8 0
8 9 -10 0
-8 -9 -10 0
8 -9 10 0
-8 9 10 0
11 -3 0
11 -10 0
3 10 -11 0
8 -11 -12 0
-8 11 -12 0
8 11 12 0
-8 -11 12 0
13 8 0
13 12 0
-8 -12 -13 0
-17 -15 0
-17 -16 0
15 16 17 0
-14 -17 -18 0
14 17 -18 0
-14 17 18 0
14 -17 18 0
-20 -19 0
-20 8 0
19 -8 20 0
-21 18 0
-21 20 0
-18 -20 21 0
-22 5 0
-22 21 0
-5 -21 22 0
13 22 -23 0
-13 -22 -23 0
13 -22 23 0
-13 22 23 0
4 23 -24 0
-4 -23 -24 0
4 -23 24 0
-4 23 24 0
25 -5 0
25 9 0
5 -9 -25 0
-26 -1 0
-26 25 0
1 -25 26 0
-2 -27 0
2 -27 0
28 26 0
28 -27 0
-26 27 -28 0
29 28 0
29 16 0
-28 -16 -29 0
-30 -17 0
-30 16 0
17 -16 30 0
31 29 0
31 30 0
-29 -30 -31 0
-32 -6 -33 0
32 6 -33 0
-32 6 33 0
32 -6 33 0
34 33 0
34 -27 0
-33 27 -34 0
-35 -34 0
-35 17 0
34 -17 35 0
36 15 -37 0
-36 -15 -37 0
36 -15 37 0
-36 15 37 0
38 -35 0
38 -37 0
35 37 -38 0
39 1 0
39 -2 0
-1 2 -39 0
-39 16 -40 0
39 -16 -40 0
-39 -16 40 0
39 16 40 0
-41 38 0
-41 -40 0
-38 40 41 0
-42 -31 0
-42 41 0
31 -41 42 0
-43 -15 -44 0
43 15 -44 0
-43 15 44 0
43 -15 44 0
45 44 0
45 -25 0
-44 25 -45 0
46 44 0
46 -45 0
-44 45 -46 0
1 -19 -47 0
-1 19 -47 0
1 19 47 0
-1 -19 47 0
-48 -33 0
-48 19 0
33 -19 48 0
49 48 0
49 2 0
-48 -2 -49 0
50 -20 0
50 -49 0
20 49 -50 0
-16 -26 -51 0
16 26 -51 0
-16 26 51 0
16 -26 51 0
-25 -51 -52 0
25 51 -52 0
-25 51 52 0
25 -51 52 0
52 -18 -53 0
-52 18 -53 0
52 18 53 0
-52 -18 53 0
-54 -36 0
-54 -53 0
36 53 54 0
55 -50 0
55 54 0
50 -54 -55 0
47 -55 -56 0
-47 55 -56 0
47 55 56 0
-47 -55 56 0
46 56 -57 0
-46 -56 -57 0
46 -56 57 0
-46 56 57 0
25 33 -58 0
-25 -33 -58 0
25 -33 58 0
-25 33 58 0
-60 16 0
-60 25 0
-16 -25 60 0
-61 60 0
-61 -44 0
-60 44 61 0
-62 61 0
-62 -59 0
-61 59 62 0
-63 -59 0
-63 -62 0
59 62 63 0
-64 27 0
-64 49 0
-27 -49 64 0
-63 64 -65 0
63 -64 -65 0
-63 -64 65 0
63 64 65 0
-66 65 0
-66 6 0
-65 -6 66 0
-67 66 0
-67 -5 0
-66 5 67 0
69 68 0
69 34 0
-68 -34 -69 0
70 67 0
70 -69 0
-67 69 -70 0
-58 -70 -71 0
58 70 -71 0
-58 70 71 0
58 -70 71 0
72 -32 0
72 -2 0
32 2 -72 0
-73 72 0
-73 45 0
-72 -45 73 0
74 62 0
74 -73 0
-62 73 -74 0
-10 -75 -76 0
10 75 -76 0
-10 75 76 0
10 -75 76 0
-74 -76 -77 0
74 76 -77 0
-74 76 77 0
74 -76 77 0
78 -71 0
78 77 0
71 -77 -78 0
79 57 0
79 -78 0
-57 78 -79 0
80 -42 0
80 -79 0
42 79 -80 0
81 24 0
81 80 0
-24 -80 -81 0
-82 -53 0
-82 -62 0
53 62 82 0
-49 -82 -83 0
49 82 -83 0
-49 82 83 0
49 -82 83 0
84 -16 0
84 -3 0
16 3 -84 0
-85 -84 0
-85 61 0
84 -61 85 0
86 -83 0
86 85 0
83 -85 -86 0
-87 49 0
-87 11 0
-49 -11 87 0
-88 -86 0
-88 -87 0
86 87 88 0
89 -84 0
89 84 0
90 1 0
90 -89 0
-1 89 -90 0
-91 -90 0
-91 82 0
90 -82 91 0
88 91 -92 0
-88 -91 -92 0
88 -91 92 0
-88 91 92 0
-93 15 0
-93 1 0
-15 -1 93 0
94 -9 0
94 93 0
9 -93 -94 0
-95 -60 0
-95 -62 0
60 62 95 0
94 95 -96 0
-94 -95 -96 0
94 -95 96 0
-94 95 96 0
97 92 0
97 96 0
-92 -96 -97 0
7 18 -98 0
-7 -18 -98 0
7 -18 98 0
-7 18 98 0
-99 -98 0
-99 -90 0
98 90 99 0
-100 25 0
-100 -99 0
-25 99 100 0
100 -28 -101 0
-100 28 -101 0
100 28 101 0
-100 -28 101 0
102 -34 0
102 -26 0
34 26 -102 0
-103 90 0
-103 100 0
-90 -100 103 0
-104 -102 0
-104 -103 0
102 103 104 0
-105 101 0
-105 -104 0
-101 104 105 0
97 105 -106 0
-97 -105 -106 0
97 -105 106 0
-97 105 106 0
-107 -17 0
-107 -6 0
17 6 107 0
108 107 0
108 51 0
-107 -51 -108 0
109 1 0
109 32 0
-1 -32 -109 0
-108 -109 -110 0
108 109 -110 0
-108 109 110 0
108 -109 110 0
111 100 0
111 18 0
-100 -18 -111 0
-112 75 0
-112 17 0
-75 -17 112 0
113 -112 0
113 -75 0
112 75 -113 0
114 39 0
114 -113 0
-39 113 -114 0
-115 -33 0
-115 84 0
33 -84 115 0
116 25 0
116 14 0
-25 -14 -116 0
-115 116 -117 0
115 -116 -117 0
-115 -116 117 0
115 116 117 0
118 -114 0
118 117 0
114 -117 -118 0
-111 -118 -119 0
111 118 -119 0
-111 118 119 0
111 -118 119 0
110 -119 -120 0
-110 119 -120 0
110 119 120 0
-110 -119 120 0
121 -106 0
121 -120 0
106 120 -121 0
122 12 0
122 -50 0
-12 50 -122 0
-123 75 0
-123 7 0
-75 -7 123 0
-124 -2 0
-124 -123 0
2 123 124 0
-21 7 -125 0
21 -7 -125 0
-21 -7 125 0
21 7 125 0
126 124 0
126 -125 0
-124 125 -126 0
127 122 0
127 -126 0
-122 126 -127 0
-128 121 0
-128 -127 0
-121 127 128 0
7 18 -130 0
-7 -18 -130 0
7 -18 130 0
-7 18 130 0
131 -21 0
131 -130 0
21 130 -131 0
-132 129 0
-132 -131 0
-129 131 132 0
-133 -16 0
-133 -132 0
16 132 133 0
-50 133 -134 0
50 -133 -134 0
-50 -133 134 0
50 133 134 0
-32 84 -135 0
32 -84 -135 0
-32 -84 135 0
32 84 135 0
136 -14 0
136 65 0
14 -65 -136 0
-25 -39 -137 0
25 39 -137 0
-25 39 137 0
25 -39 137 0
136 137 -138 0
-136 -137 -138 0
136 -137 138 0
-136 137 138 0
135 -138 -139 0
-135 138 -139 0
135 138 139 0
-135 -138 139 0
-140 -134 0
-140 139 0
134 -139 140 0
-141 128 0
-141 140 0
-128 -140 141 0
-81 141 -142 0
81 -141 -142 0
-81 -141 142 0
81 141 142 0
16 27 -143 0
-16 -27 -143 0
16 -27 143 0
-16 27 143 0
6 -26 -144 0
-6 26 -144 0
6 26 144 0
-6 -26 144 0
-145 -19 0
-145 -144 0
19 144 145 0
-146 143 0
-146 -145 0
-143 145 146 0
-6 -25 -147 0
6 25 -147 0
-6 25 147 0
6 -25 147 0
146 -147 -148 0
-146 147 -148 0
146 147 148 0
-146 -147 148 0
149 142 0
149 -148 0
-142 148 -149 0
64 77 129 116 -109 137 0
40 -39 61 0
44 148 -101 -30 24 0
61 -30 146 76 7 -139 0
124 141 0
9 19 78 0
-64 -56 98 0
36 -23 -130 -132 0
-53 66 132 -25 -63 0
53 -132 105 124 0
-25 38 99 49 -100 -57 0
116 47 -84 0
-30 38 -14 88 4 0
-95 -13 43 -103 0
88 51 0
26 34 110 68 0
-64 -140 56 -80 -114 -55 0
-71 55 0
-67 34 0
47 128 66 126 -81 0
-107 58 120 0
88 37 0
-128 37 134 -85 24 0
-33 -14 -19 0
-24 -22 0
-117 -45 116 0
142 -73 90 -129 0
-29 -5 -61 106 0
84 -120 143 30 0
126 -104 98 -64 28 0
37 -29 19 -81 34 76 0
72 55 -126 0
-46 -118 -42 -87 0
-58 103 72 107 91 0
54 -135 0
69 -74 6 48 0
112 44 144 -104 4 0
-140 -139 -131 99 -55 0
-66 112 30 -96 -12 0
122 -49 0
-28 44 102 0
-73 -61 -17 86 40 0
87 -11 5 126 -80 0
68 34 31 0
-117 38 -129 47 0
-114 -94 38 -80 0
31 -147 71 78 134 0
125 120 122 130 81 121 0
93 -115 -52 -62 0
-28 -70 -109 133 0
126 11 -50 29 0
-98 -1 0
63 93 -73 -24 0
-57 -141 44 -116 0
18 -50 80 -29 0
119 95 -55 -106 0
-144 -136 -131 -4 -31 0
40 138 -122 141 54 0
-6 -127 0
45 131 -125 -107 109 -37 0
-92 -75 138 82 113 -57 0
30 -116 0
32 6 -139 90 -74 0
-60 147 13 -11 0
-22 -139 -144 -4 0
65 20 -28 -81 -64 -5 0
149 0
